(set-option :auto-config true)
(set-option :produce-unsat-cores false)
(set-option :smt.mbqi.max_iterations 10000000)
(set-option :smt.relevancy 2)
(declare-fun c0 () int)
(declare-fun c1 () int)
(define-fun e2 () bool (= c0 c1))
(declare-fun c3 () int)
(define-fun e4 () bool (= c0 c3))
(declare-fun c5 () int)
(define-fun e6 () bool (= c0 c5))
(define-fun e7 () bool (and e4 e6))
(define-fun e8 () bool (and e2 e7))
(define-fun e9 () int (+ c0 c1 c3 c5))
(define-fun e10 () bool (< 0 e9))
(define-fun e11 () bool (or e8 e10))
(assert e11)
(define-fun e12 () bool (not e8))
(define-fun e13 () bool (< 0 c0))
(define-fun e14 () bool (not e13))
(define-fun e15 () bool (< 0 c1))
(define-fun e16 () bool (not e15))
(define-fun e17 () bool (< 0 c3))
(define-fun e18 () bool (not e17))
(define-fun e19 () bool (< 0 c5))
(define-fun e20 () bool (and e18 e19))
(define-fun e21 () bool (or e17 e20))
(define-fun e22 () bool (and e16 e21))
(define-fun e23 () bool (or e15 e22))
(define-fun e24 () bool (and e14 e23))
(define-fun e25 () bool (or e13 e24))
(define-fun e26 () bool (not e11))
(define-fun e27 () bool (or e25 e26))
(define-fun e28 () bool (and e12 e27))
(define-fun e29 () bool (not e28))
(assert e29)
(check-sat)
(get-model)